c CNF file corresponding to a (partial) station packing problem.
p cnf 2564 184
1 2 3 4 5 6 7 8 9 10 11 12 13 14 0
-1 -2 0
-1 -3 0
-1 -4 0
-1 -5 0
-1 -6 0
-1 -7 0
-1 -8 0
-1 -9 0
-1 -10 0
-1 -11 0
-1 -12 0
-1 -13 0
-1 -14 0
-2 -3 0
-2 -4 0
-2 -5 0
-2 -6 0
-2 -7 0
-2 -8 0
-2 -9 0
-2 -10 0
-2 -11 0
-2 -12 0
-2 -13 0
-2 -14 0
-3 -4 0
-3 -5 0
-3 -6 0
-3 -7 0
-3 -8 0
-3 -9 0
-3 -10 0
-3 -11 0
-3 -12 0
-3 -13 0
-3 -14 0
-4 -5 0
-4 -6 0
-4 -7 0
-4 -8 0
-4 -9 0
-4 -10 0
-4 -11 0
-4 -12 0
-4 -13 0
-4 -14 0
-5 -6 0
-5 -7 0
-5 -8 0
-5 -9 0
-5 -10 0
-5 -11 0
-5 -12 0
-5 -13 0
-5 -14 0
-6 -7 0
-6 -8 0
-6 -9 0
-6 -10 0
-6 -11 0
-6 -12 0
-6 -13 0
-6 -14 0
-7 -8 0
-7 -9 0
-7 -10 0
-7 -11 0
-7 -12 0
-7 -13 0
-7 -14 0
-8 -9 0
-8 -10 0
-8 -11 0
-8 -12 0
-8 -13 0
-8 -14 0
-9 -10 0
-9 -11 0
-9 -12 0
-9 -13 0
-9 -14 0
-10 -11 0
-10 -12 0
-10 -13 0
-10 -14 0
-11 -12 0
-11 -13 0
-11 -14 0
-12 -13 0
-12 -14 0
-13 -14 0
2551 2552 2553 2554 2555 2556 2557 2558 2559 2560 2561 2562 2563 2564 0
-2551 -2552 0
-2551 -2553 0
-2551 -2554 0
-2551 -2555 0
-2551 -2556 0
-2551 -2557 0
-2551 -2558 0
-2551 -2559 0
-2551 -2560 0
-2551 -2561 0
-2551 -2562 0
-2551 -2563 0
-2551 -2564 0
-2552 -2553 0
-2552 -2554 0
-2552 -2555 0
-2552 -2556 0
-2552 -2557 0
-2552 -2558 0
-2552 -2559 0
-2552 -2560 0
-2552 -2561 0
-2552 -2562 0
-2552 -2563 0
-2552 -2564 0
-2553 -2554 0
-2553 -2555 0
-2553 -2556 0
-2553 -2557 0
-2553 -2558 0
-2553 -2559 0
-2553 -2560 0
-2553 -2561 0
-2553 -2562 0
-2553 -2563 0
-2553 -2564 0
-2554 -2555 0
-2554 -2556 0
-2554 -2557 0
-2554 -2558 0
-2554 -2559 0
-2554 -2560 0
-2554 -2561 0
-2554 -2562 0
-2554 -2563 0
-2554 -2564 0
-2555 -2556 0
-2555 -2557 0
-2555 -2558 0
-2555 -2559 0
-2555 -2560 0
-2555 -2561 0
-2555 -2562 0
-2555 -2563 0
-2555 -2564 0
-2556 -2557 0
-2556 -2558 0
-2556 -2559 0
-2556 -2560 0
-2556 -2561 0
-2556 -2562 0
-2556 -2563 0
-2556 -2564 0
-2557 -2558 0
-2557 -2559 0
-2557 -2560 0
-2557 -2561 0
-2557 -2562 0
-2557 -2563 0
-2557 -2564 0
-2558 -2559 0
-2558 -2560 0
-2558 -2561 0
-2558 -2562 0
-2558 -2563 0
-2558 -2564 0
-2559 -2560 0
-2559 -2561 0
-2559 -2562 0
-2559 -2563 0
-2559 -2564 0
-2560 -2561 0
-2560 -2562 0
-2560 -2563 0
-2560 -2564 0
-2561 -2562 0
-2561 -2563 0
-2561 -2564 0
-2562 -2563 0
-2562 -2564 0
-2563 -2564 0
